CANTIDAD_ACTORES = 4;

ACTORES = { Actor1 , Actor2 , Actor3 , Actor4 };

CANTIDAD_ESCENAS = 4;

Escenas =
[| 1 , 0 , 1 , 1 , 10
| 0 , 1 , 0 , 1 , 20
| 0 , 1 , 1 , 0 , 5
| 1 , 0 , 0 , 1 , 2|];

Duracion =
[ 2 , 3 , 1 , 2 ];

Maximo_tiempo_actores = [5 , 5 , 4 , 4];

CANTIDAD_PAREJAS = 0;

Actores_separados = [];

c_weight = 0.9;

t_weight = 0.1;